benchmarks_vrp/CMT2/fixed_c/CMT2_2.vrp
NAME: CMT2_2
TYPE: CVRP
COMMENT: 835.26 - Cluster Nr.2
DIMENSION: 11
CAPACITY: 140
EDGE_WEIGHT_TYPE: EUC_2D
NODE_COORD_TYPE: TWOD_COORDS
NODE_COORD_SECTION: 
1 35 16
6 30 20
7 26 29
9 43 26
8 33 34
11 27 24
10 38 33
4 40 37
5 36 26
2 40 20
3 40 40
DEPOT_SECTION: 
3
-1
DEMAND_SECTION: 
11 6
3 0
6 18
8 19
1 29
5 26
7 27
10 10
4 20
2 10
9 22
EOF
