benchmarks_vrp/CMT2/fixed_c/CMT2_2.tour
NAME: CMT2_2 solution
TYPE: TOUR
TOUR_SECTION:
3 8 10 4 -1
3 5 7 11 6 1 2 9 -1
-1
EOF